; benchmark generated from python API
(set-info :status unknown)
(declare-datatypes ((RealState 0)) (((RMk1 (rval1 Real)) (RMk2 (rval2 Real)))))
 (assert
 (forall ((|v17:0| Real) )(forall ((|v16:1| Real) )(forall ((|v15:2| Real) )(forall ((|v14:3| Real) )(forall ((|v13:4| Real) )(forall ((|v12:5| Real) )(exists ((|v11:6_st| RealState) (val!6942 Real) )(exists ((|v10:7_st| RealState) (val!6943 Real) )(exists ((|v9:8_st| RealState) (val!6944 Real) )(exists ((|v8:9_st| RealState) (val!6945 Real) )(exists ((|v7:10_st| RealState) (val!6946 Real) )(exists ((|v6:11_st| RealState) (val!6947 Real) )(forall ((|v5:12| Real) )(forall ((|v4:13| Real) )(forall ((|v3:14| Real) )(forall ((|v2:15| Real) )(forall ((|v1:16| Real) )(forall ((|v0:17| Real) )(let ((?x2271 (- 18.0)))
 (let ((?x2233 (* ?x2271 |v5:12|)))
 (let ((?x2275 (+ (+ (* (- 11.0) |v14:3|) (* (- 15.0) (rval2 |v6:11_st|))) (* (- 19.0) (rval2 |v6:11_st|)))))
 (let ((?x953 (* 2.0 |v4:13|)))
 (let ((?x395 (+ (+ (+ (* (- 17.0) |v4:13|) (* 3.0 |v0:17|)) (* 16.0 (rval2 |v11:6_st|))) ?x953)))
 (let ((?x132 (- 10.0)))
 (let ((?x524 (- 12.0)))
 (let ((?x1849 (* ?x524 |v12:5|)))
 (let ((?x796 (+ (+ (+ (* (- 2.0) |v16:1|) (* 17.0 |v14:3|)) (* 14.0 |v3:14|)) ?x1849)))
 (let (($x3319 (or (and (<= ?x796 ?x132) (<= ?x395 16.0)) (<= (+ ?x2275 ?x2233) 13.0))))
 (let ((?x2474 (- 4.0)))
 (let ((?x597 (+ (+ (* ?x524 |v2:15|) (* 2.0 (rval2 |v11:6_st|))) (* (- 5.0) (rval2 |v8:9_st|)))))
 (let ((?x746 (- 11.0)))
 (let ((?x2501 (* 14.0 |v15:2|)))
 (let ((?x2502 (+ (+ (* (- 8.0) (rval2 |v9:8_st|)) (* ?x524 (rval2 |v9:8_st|))) (* (- 1.0) |v13:4|))))
 (let (($x1544 (and (<= (+ ?x2502 ?x2501) ?x746) (<= (+ ?x597 (* (- 5.0) |v16:1|)) ?x2474))))
 (let ((?x1816 (- 16.0)))
 (let ((?x1095 (* ?x1816 |v1:16|)))
 (let (($x1659 (<= (+ (+ (+ (* 7.0 (rval2 |v10:7_st|)) |v15:2|) (* 3.0 |v13:4|)) ?x1095) 2.0)))
 (let ((?x1973 (+ (+ (+ (* (- 13.0) |v1:16|) (* 5.0 |v15:2|)) (* 19.0 |v16:1|)) (* ?x132 (rval2 |v9:8_st|)))))
 (let ((?x273 (- 6.0)))
 (let ((?x894 (+ (+ (* (- 8.0) (rval2 |v11:6_st|)) (* (- 3.0) (rval2 |v9:8_st|))) (* 17.0 (rval2 |v7:10_st|)))))
 (let ((?x3477 (- 17.0)))
 (let ((?x622 (* ?x3477 |v4:13|)))
 (let ((?x1337 (+ (+ (+ (* (- 3.0) |v16:1|) (* (- 3.0) |v4:13|)) (* 9.0 |v12:5|)) ?x622)))
 (let ((?x677 (- 1.0)))
 (let ((?x1642 (- 20.0)))
 (let ((?x2535 (* ?x1642 |v1:16|)))
 (let ((?x1555 (+ (+ (+ (* (- 19.0) |v4:13|) (* 2.0 |v14:3|)) (* 8.0 |v5:12|)) ?x2535)))
 (let ((?x148 (+ (+ (+ (* (- 15.0) |v2:15|) (* 11.0 |v16:1|)) (* 12.0 (rval2 |v9:8_st|))) (* (- 5.0) |v17:0|))))
 (let (($x3175 (or (or (<= ?x148 15.0) (<= ?x1555 ?x677)) (and (<= ?x1337 ?x524) (<= (+ ?x894 (* 9.0 (rval2 |v7:10_st|))) ?x273)))))
 (let ((?x2326 (* 7.0 |v1:16|)))
 (let ((?x2674 (+ (+ (+ (* ?x3477 (rval2 |v10:7_st|)) (* 2.0 |v16:1|)) (* (- 14.0) |v15:2|)) ?x2326)))
 (let ((?x961 (- 2.0)))
 (let ((?x87 (* ?x961 |v3:14|)))
 (let ((?x2586 (+ (+ (+ (* ?x2271 (rval2 |v11:6_st|)) (* (- 3.0) |v16:1|)) ?x87) (* ?x677 (rval2 |v11:6_st|)))))
 (let ((?x2096 (* 19.0 |v15:2|)))
 (let ((?x979 (+ (+ (+ (* 18.0 |v0:17|) (* (- 5.0) (rval2 |v9:8_st|))) (* 8.0 |v17:0|)) ?x2096)))
 (let ((?x50 (+ (+ (+ (* ?x524 |v15:2|) (* 3.0 (rval2 |v10:7_st|))) (* 9.0 |v1:16|)) (* (- 5.0) |v14:3|))))
 (let (($x2301 (and (and (<= ?x50 7.0) (<= ?x979 3.0)) (and (<= ?x2586 ?x2474) (<= ?x2674 7.0)))))
 (let (($x1817 (or (and $x2301 $x3175) (and (and (or (<= ?x1973 18.0) $x1659) $x1544) $x3319))))
 (let ((?x1150 (- 3.0)))
 (let ((?x1485 (* ?x1150 |v16:1|)))
 (let ((?x671 (+ (+ (+ (* 11.0 (rval2 |v8:9_st|)) (* (- 19.0) |v3:14|)) ?x1485) (* 13.0 |v16:1|))))
 (let ((?x201 (+ (+ (+ (* (- 15.0) |v5:12|) (* ?x273 (rval2 |v11:6_st|))) (* ?x1642 |v13:4|)) (* 7.0 (rval2 |v7:10_st|)))))
 (let ((?x1737 (* 12.0 |v3:14|)))
 (let ((?x2490 (+ (+ (+ (* (- 9.0) |v12:5|) (* 17.0 |v2:15|)) (* 12.0 |v14:3|)) ?x1737)))
 (let ((?x1878 (* 18.0 |v1:16|)))
 (let ((?x3229 (+ (+ (+ (* 2.0 |v17:0|) (* (- 9.0) |v17:0|)) (* 3.0 (rval2 |v7:10_st|))) ?x1878)))
 (let (($x819 (or (and (<= ?x3229 18.0) (<= ?x2490 ?x273)) (or (<= ?x201 5.0) (<= ?x671 8.0)))))
 (let ((?x1452 (* 11.0 |v12:5|)))
 (let ((?x1782 (- 15.0)))
 (let ((?x1475 (* ?x1782 |v2:15|)))
 (let (($x407 (<= (+ (+ (+ (* 7.0 (rval2 |v8:9_st|)) (* (- 13.0) |v14:3|)) ?x1475) ?x1452) ?x132)))
 (let ((?x2136 (* ?x273 |v0:17|)))
 (let ((?x3499 (+ (+ (+ (* ?x677 (rval2 |v9:8_st|)) (* 0.0 |v2:15|)) (* (- 7.0) |v15:2|)) ?x2136)))
 (let ((?x3502 (rval2 |v9:8_st|)))
 (let ((?x178 (* 3.0 ?x3502)))
 (let ((?x276 (+ (+ (+ (* (- 13.0) |v0:17|) (* (- 8.0) |v5:12|)) (* 18.0 |v13:4|)) ?x178)))
 (let ((?x1252 (* 2.0 |v16:1|)))
 (let ((?x981 (+ (+ (+ (* ?x2474 |v2:15|) (* ?x677 (rval2 |v8:9_st|))) (* (- 19.0) |v4:13|)) ?x1252)))
 (let (($x1180 (or (or (<= ?x981 ?x2271) (<= ?x276 16.0)) (or (<= ?x3499 5.0) $x407))))
 (let ((?x962 (* ?x132 |v2:15|)))
 (let ((?x1808 (+ (+ (+ (* 17.0 |v2:15|) (* (- 7.0) |v16:1|)) (* 15.0 (rval2 |v6:11_st|))) ?x962)))
 (let ((?x1101 (- 13.0)))
 (let ((?x2231 (+ (+ (* 13.0 |v0:17|) (* 17.0 |v4:13|)) (* 12.0 |v5:12|))))
 (let ((?x2112 (- 14.0)))
 (let ((?x2387 (rval2 |v6:11_st|)))
 (let ((?x1153 (* 17.0 ?x2387)))
 (let (($x1215 (<= (+ (+ (+ (* (- 8.0) (rval2 |v8:9_st|)) (* 0.0 |v12:5|)) ?x1878) ?x1153) ?x2112)))
 (let ((?x2525 (* 14.0 |v4:13|)))
 (let ((?x1425 (+ (+ (* 18.0 (rval2 |v8:9_st|)) (* (- 7.0) |v16:1|)) (* ?x1150 (rval2 |v11:6_st|)))))
 (let ((?x471 (* 19.0 |v5:12|)))
 (let ((?x3323 (+ (+ (+ (* (- 7.0) (rval2 |v10:7_st|)) (* ?x2474 |v1:16|)) (* 10.0 |v3:14|)) ?x471)))
 (let ((?x1204 (* ?x3477 |v3:14|)))
 (let ((?x3149 (+ (+ (+ (* ?x746 (rval2 |v8:9_st|)) (* ?x746 ?x2387)) (* 12.0 |v16:1|)) ?x1204)))
 (let ((?x2254 (* 6.0 ?x3502)))
 (let (($x1395 (<= (+ (+ (+ (* 19.0 |v4:13|) (* ?x1782 |v16:1|)) (* ?x273 |v5:12|)) ?x2254) 16.0)))
 (let (($x2437 (and (or $x1395 (<= ?x3149 ?x1642)) (and (<= ?x3323 ?x2474) (<= (+ ?x1425 ?x2525) ?x677)))))
 (let (($x3422 (or $x2437 (and (and $x1215 (<= (+ ?x2231 (* ?x2474 |v12:5|)) ?x1101)) (<= ?x1808 ?x273)))))
 (let ((?x3112 (+ (+ (+ (* 15.0 |v1:16|) (* (- 7.0) |v0:17|)) (* ?x2271 (rval2 |v8:9_st|))) ?x1849)))
 (let ((?x71 (- 9.0)))
 (let ((?x1650 (+ (+ (+ (* 9.0 |v14:3|) (* 4.0 (rval2 |v11:6_st|))) (rval2 |v8:9_st|)) (* ?x1101 (rval2 |v8:9_st|)))))
 (let ((?x1469 (* 10.0 |v3:14|)))
 (let (($x978 (<= (+ (+ (+ (* ?x1642 |v12:5|) (* ?x71 ?x3502)) (* ?x1150 |v5:12|)) ?x1469) 6.0)))
 (let ((?x2911 (* 8.0 |v4:13|)))
 (let (($x3349 (<= (+ (+ (+ (* ?x1782 |v16:1|) (* ?x746 |v14:3|)) (* (- 5.0) |v13:4|)) ?x2911) ?x1642)))
 (let ((?x1810 (+ (+ (+ (* ?x1642 |v12:5|) (* 16.0 (rval2 |v8:9_st|))) (* ?x2474 |v16:1|)) (* ?x1782 |v15:2|))))
 (let (($x2936 (or (<= ?x1810 ?x677) (or (and $x3349 $x978) (or (<= ?x1650 ?x71) (<= ?x3112 ?x1101))))))
 (let ((?x2176 (* 2.0 |v3:14|)))
 (let ((?x1905 (+ (+ (+ (* 12.0 (rval2 |v8:9_st|)) (* 9.0 |v17:0|)) (* 10.0 |v12:5|)) ?x2176)))
 (let ((?x1176 (rval2 |v8:9_st|)))
 (let ((?x1554 (- 19.0)))
 (let ((?x2447 (* ?x1554 ?x1176)))
 (let (($x2992 (<= (+ (+ (+ ?x2447 (* 10.0 |v5:12|)) (* ?x961 (rval2 |v10:7_st|))) ?x2447) 15.0)))
 (let ((?x2622 (+ (+ (+ (* 8.0 (rval2 |v11:6_st|)) (* 3.0 |v16:1|)) (* 8.0 |v2:15|)) (* (- 7.0) (rval2 |v11:6_st|)))))
 (let (($x1901 (<= (+ (+ (+ (* 7.0 |v14:3|) (* ?x677 |v12:5|)) ?x1153) (* ?x132 |v16:1|)) ?x746)))
 (let ((?x2824 (- 7.0)))
 (let ((?x830 (* 3.0 |v5:12|)))
 (let (($x3083 (<= (+ (+ (+ (* ?x71 ?x3502) (* ?x1554 |v15:2|)) (* ?x524 ?x3502)) ?x830) ?x2824)))
 (let ((?x1127 (- 8.0)))
 (let ((?x1071 (+ (+ (+ (* 20.0 ?x2387) (* 8.0 ?x2387)) (* ?x2824 |v4:13|)) (* 4.0 |v14:3|))))
 (let ((?x509 (* ?x2824 |v1:16|)))
 (let ((?x2825 (+ (+ (+ (* 4.0 |v2:15|) (* 0.0 (rval2 |v10:7_st|))) (* 6.0 |v15:2|)) ?x509)))
 (let (($x242 (and (and (and (<= ?x2825 ?x1782) (<= ?x1071 ?x1127)) (or $x3083 $x1901)) (and (<= ?x2622 18.0) (or $x2992 (<= ?x1905 19.0))))))
 (let ((?x794 (* 19.0 |v0:17|)))
 (let (($x1406 (<= (+ (+ (+ (* 0.0 |v5:12|) (* ?x1554 |v14:3|)) (* 18.0 ?x2387)) ?x794) 9.0)))
 (let ((?x2552 (+ (+ (+ (* 7.0 |v14:3|) (* ?x961 |v1:16|)) (* ?x71 (rval2 |v7:10_st|))) (* 6.0 (rval2 |v7:10_st|)))))
 (let ((?x2383 (rval2 |v11:6_st|)))
 (let ((?x191 (* ?x273 ?x2383)))
 (let (($x262 (<= (+ (+ (+ (* 17.0 |v12:5|) (* 7.0 |v14:3|)) (* ?x2271 |v3:14|)) ?x191) 2.0)))
 (let ((?x2522 (* 20.0 |v0:17|)))
 (let (($x3282 (<= (+ (+ (+ (* ?x677 ?x2387) (* ?x1816 |v14:3|)) (* 14.0 |v13:4|)) ?x2522) ?x132)))
 (let ((?x1284 (* 15.0 |v2:15|)))
 (let (($x734 (<= (+ (+ (+ (* 6.0 |v4:13|) (* ?x1101 |v0:17|)) (* ?x1554 |v14:3|)) ?x1284) 9.0)))
 (let ((?x1477 (- 5.0)))
 (let ((?x3087 (* 15.0 |v4:13|)))
 (let (($x347 (<= (+ (+ (+ (* 17.0 |v13:4|) (* ?x1642 |v13:4|)) (* ?x2271 |v12:5|)) ?x3087) ?x1477)))
 (let ((?x301 (* ?x1477 |v3:14|)))
 (let ((?x1417 (+ (+ (+ (* 2.0 (rval2 |v7:10_st|)) (* 6.0 ?x2387)) (* 18.0 |v15:2|)) ?x301)))
 (let ((?x1641 (* ?x961 |v1:16|)))
 (let (($x1575 (<= (+ (+ (+ (* 17.0 ?x2383) (* ?x3477 |v5:12|)) (* 0.0 |v2:15|)) ?x1641) ?x2824)))
 (let ((?x2002 (* 9.0 |v17:0|)))
 (let (($x546 (<= (+ (+ (+ (* 16.0 |v15:2|) (* 0.0 |v1:16|)) (* ?x1101 |v16:1|)) ?x2002) ?x273)))
 (let (($x616 (or (or (or $x546 $x1575) (or (<= ?x1417 0.0) $x347)) (and (or $x734 $x3282) (or $x262 (<= ?x2552 9.0))))))
 (let (($x1940 (and (or (or $x616 $x1406) (and $x242 $x2936)) (and (or $x3422 (or $x1180 $x819)) $x1817))))
 (let (($x785 (not (= |v6:11_st| (RMk1 val!6947)))))
 (let (($x1017 (not (= |v7:10_st| (RMk1 val!6946)))))
 (let (($x2912 (not (= |v8:9_st| (RMk1 val!6945)))))
 (let (($x2702 (not (= |v9:8_st| (RMk1 val!6944)))))
 (let (($x1978 (not (= |v10:7_st| (RMk1 val!6943)))))
 (let (($x891 (not (= |v11:6_st| (RMk1 val!6942)))))
 (and $x891 $x1978 $x2702 $x2912 $x1017 $x785 $x1940))))))))))))))))))))))))))))))))))))))))))))))))))))))))))))))))))))))))))))))))))))))))))))))))))))))))))))))))))))))))))))))))))))))
 )
 )
 )
 )
 )
 )
 )
 )
 )
 )
 )
 )
 )
 )
 )
 )
 )
 )
(check-sat)
